100
128
63
19
34
11
45
60
46
12
37
32
61
61
23
49
60
18
22
25
33
23
29
31
40
28
25
36
22
36
33
61
35
40
63
40
53
35
60
24
43
32
22
2
29
34
19
18
62
64
19
9
48
30
24
39
23
24
41
31
22
26
52
34
49
20
42
27
22
37
50
25
20
28
22
22
31
46
64
29
50
33
54
18
54
46
25
63
63
62
24
61
61
55
59
24
1
43
41
52
37
39